% seed = 0

mint = 38;
% maxt = 180;

nActs = 62;
dur = [0,2,3,2,3,3,1,2,8,6,1,3,3,5,3,4,3,2,5,3,2,4,3,5,3,2,2,3,2,1,3,2,3,3,4,3,2,4,2,3,3,3,3,2,2,2,5,4,3,2,2,4,1,5,4,1,2,7,3,3,1,0];

nSkills = 9;
sreq = [| 0,0,0,0,0,0,0,0,0,
	| 0,0,0,1,0,2,0,1,0,
	| 0,1,0,0,1,2,1,0,1,
	| 0,0,0,0,1,0,1,0,0,
	| 0,1,0,0,0,1,0,0,0,
	| 0,1,0,0,1,1,0,1,0,
	| 0,0,1,0,1,0,0,0,0,
	| 0,0,2,0,1,0,0,1,0,
	| 0,0,1,0,1,2,0,2,0,
	| 0,0,2,0,2,1,0,0,0,
	| 0,0,1,0,1,1,1,0,1,
	| 0,0,0,0,1,0,0,0,0,
	| 0,1,1,1,1,1,1,0,0,
	| 0,2,1,0,0,1,0,1,1,
	| 0,0,1,0,1,2,1,1,0,
	| 0,0,1,0,0,0,0,0,0,
	| 0,0,1,0,0,0,1,1,0,
	| 0,0,0,0,0,1,0,0,0,
	| 0,0,1,0,1,1,0,1,0,
	| 0,0,2,1,0,0,0,1,0,
	| 0,1,0,0,0,2,0,0,0,
	| 0,0,1,1,2,0,1,1,0,
	| 0,0,1,1,0,2,1,1,0,
	| 0,0,0,1,0,2,2,0,0,
	| 1,0,0,0,2,0,1,0,0,
	| 0,0,0,1,0,1,0,1,0,
	| 0,0,1,0,0,1,1,0,0,
	| 0,0,0,0,1,1,0,0,0,
	| 0,0,0,2,1,1,1,1,0,
	| 0,0,0,0,0,0,0,2,1,
	| 0,0,0,0,2,1,0,2,0,
	| 0,0,1,1,0,0,0,1,0,
	| 0,1,0,0,2,2,0,0,0,
	| 0,0,0,1,0,1,1,0,0,
	| 0,0,1,1,0,0,0,0,0,
	| 0,0,1,0,1,0,0,0,0,
	| 0,0,0,0,0,0,1,0,0,
	| 0,2,0,1,0,1,0,1,0,
	| 0,2,1,0,0,2,0,1,0,
	| 0,0,1,0,2,1,0,1,0,
	| 0,0,0,0,0,0,0,1,0,
	| 0,0,0,0,1,0,0,0,0,
	| 0,0,0,0,1,0,0,0,0,
	| 0,1,1,0,0,1,0,0,0,
	| 0,0,1,0,2,1,1,0,0,
	| 0,0,2,0,0,0,0,0,0,
	| 0,0,0,0,0,0,1,0,0,
	| 0,0,0,0,1,1,2,0,1,
	| 0,1,1,0,0,2,1,1,0,
	| 0,0,1,0,0,0,1,1,0,
	| 0,0,0,1,1,0,0,1,0,
	| 0,0,1,0,0,0,0,0,1,
	| 0,1,1,0,0,2,2,0,0,
	| 0,0,0,0,0,3,1,2,0,
	| 0,0,2,0,0,0,2,2,0,
	| 0,0,0,0,0,1,0,1,1,
	| 0,0,1,1,0,1,1,1,1,
	| 0,0,0,0,0,1,0,0,0,
	| 0,0,0,1,0,1,0,1,0,
	| 0,0,1,0,2,0,1,1,1,
	| 0,0,0,0,0,1,0,2,0,
	| 0,0,0,0,0,0,0,0,0, |];

% SumOfsreq = 223;

nResources = 18;
mastery = [| false,true,true,false,false,false,false,false,false,
	| false,false,false,false,true,true,false,false,false,
	| true,true,true,false,false,false,false,false,false,
	| false,false,false,false,true,true,false,false,false,
	| false,false,true,false,false,false,false,false,false,
	| false,false,false,false,false,false,false,false,true,
	| false,false,false,true,true,true,false,false,false,
	| false,false,false,true,true,true,false,false,true,
	| false,false,false,false,false,false,true,true,true,
	| false,false,false,false,false,false,false,true,true,
	| false,false,false,false,false,false,true,true,true,
	| false,true,true,false,false,false,false,false,false,
	| false,false,false,true,true,true,false,false,false,
	| false,false,false,false,false,true,false,false,false,
	| false,false,false,false,true,true,false,false,false,
	| false,false,false,false,false,false,true,true,true,
	| false,false,false,false,false,false,true,true,true,
	| false,false,false,false,false,false,false,false,true, |];

nPrecs = 93;
pred = [1,1,1,2,2,2,3,3,4,4,4,5,5,5,6,6,6,7,7,7,8,9,9,10,10,10,11,11,11,12,12,13,14,15,16,16,16,17,18,18,19,20,20,20,21,22,23,24,25,26,27,28,28,29,29,30,30,31,32,33,34,34,34,35,35,35,36,37,38,39,40,41,42,43,44,45,46,47,47,48,49,50,51,52,53,54,55,56,57,58,59,60,61];
succ = [2,3,4,25,12,47,13,6,5,14,16,10,28,32,9,7,8,42,15,24,11,27,29,26,37,61,49,18,56,19,23,21,39,17,33,19,44,44,41,20,60,34,22,39,50,55,58,56,36,55,45,38,31,30,40,35,53,37,45,36,43,51,54,41,57,46,48,44,39,59,52,45,59,58,46,54,51,50,53,60,58,54,52,60,57,55,59,57,61,61,62,62,62];

nUnrels = 1353;
unpred = [2,2,2,2,2,2,2,2,2,2,2,2,2,2,2,2,2,2,2,2,2,2,2,2,2,2,2,2,2,2,2,2,2,2,2,2,2,2,2,2,2,2,2,3,3,3,3,3,3,3,3,3,3,3,3,3,3,3,3,3,3,3,4,4,4,4,4,4,4,4,4,4,4,4,4,4,4,4,4,4,4,4,4,4,4,4,4,4,4,4,4,4,4,4,5,5,5,5,5,5,5,5,5,5,5,5,5,5,5,5,5,5,5,5,5,5,5,5,5,5,5,5,5,5,5,5,5,5,5,5,5,5,6,6,6,6,6,6,6,6,6,6,6,6,6,6,6,6,6,6,6,6,7,7,7,7,7,7,7,7,7,7,7,7,7,7,7,7,7,7,7,7,7,7,7,7,7,7,7,7,7,7,7,7,7,7,7,7,7,7,7,7,7,8,8,8,8,8,8,8,8,8,8,8,8,8,8,8,8,8,8,8,8,8,8,8,8,8,8,8,8,8,8,8,8,8,9,9,9,9,9,9,9,9,9,9,9,9,9,9,9,9,9,9,9,9,9,9,9,9,9,9,9,9,9,9,9,9,9,9,9,10,10,10,10,10,10,10,10,10,10,10,10,10,10,10,10,10,10,10,10,10,10,10,10,10,10,10,10,10,10,10,10,10,10,10,10,10,10,10,10,10,11,11,11,11,11,11,11,11,11,11,11,11,11,11,11,11,11,11,11,11,11,11,11,11,11,11,11,11,11,11,11,12,12,12,12,12,12,12,12,12,12,12,12,12,12,12,12,12,12,12,12,12,12,12,12,12,12,12,12,12,12,12,12,12,12,12,12,12,12,12,12,12,12,12,12,13,13,13,13,13,13,13,13,13,13,13,13,13,13,13,13,13,13,13,13,13,13,13,13,13,13,13,13,13,13,13,13,13,13,13,13,13,13,13,13,13,13,13,14,14,14,14,14,14,14,14,14,14,14,14,14,14,14,14,14,14,14,14,14,14,14,14,14,14,14,14,14,14,14,14,14,14,14,14,14,14,14,14,14,14,14,14,14,15,15,15,15,15,15,15,15,15,15,15,15,15,15,15,15,15,15,15,15,15,15,15,15,15,15,15,15,15,15,15,15,15,15,15,15,15,15,15,15,16,16,16,16,16,16,16,16,16,16,16,16,16,16,16,16,16,16,16,16,16,16,16,16,16,16,16,16,16,16,16,16,16,16,16,16,17,17,17,17,17,17,17,17,17,17,17,17,17,17,17,17,17,17,17,17,17,17,17,17,17,17,17,17,17,17,17,17,17,17,17,17,17,17,17,18,18,18,18,18,18,18,18,18,18,18,18,18,18,18,18,18,18,18,18,18,18,18,18,18,18,18,18,19,19,19,19,19,19,19,19,19,19,19,19,19,19,19,19,19,19,19,19,19,19,19,19,19,19,19,19,19,19,19,19,19,19,19,19,19,19,19,19,19,20,20,20,20,20,20,20,20,20,20,20,20,20,20,20,20,20,20,20,20,20,20,20,20,20,20,20,20,20,21,21,21,21,21,21,21,21,21,21,21,21,21,21,21,21,21,21,21,21,21,21,21,21,21,21,21,21,21,21,21,21,21,21,21,21,22,22,22,22,22,22,22,22,22,22,22,22,22,22,22,22,22,22,22,22,22,22,22,22,22,22,22,22,22,22,22,22,22,22,22,22,22,23,23,23,23,23,23,23,23,23,23,23,23,23,23,23,23,23,23,23,23,23,23,23,23,23,23,23,23,23,23,23,23,23,23,23,23,24,24,24,24,24,24,24,24,24,24,24,24,24,24,24,24,24,24,24,24,24,24,24,24,24,24,24,24,24,24,24,24,24,24,25,25,25,25,25,25,25,25,25,25,25,25,25,25,25,25,25,25,25,25,25,25,25,25,25,25,25,25,25,25,25,25,25,26,26,26,26,26,26,26,26,26,26,26,26,26,26,26,26,26,26,26,26,26,26,26,26,26,26,26,26,26,26,26,26,26,27,27,27,27,27,27,27,27,27,27,27,27,27,27,27,27,27,27,27,27,27,27,27,27,27,27,27,27,27,27,28,28,28,28,28,28,28,28,28,28,28,28,28,28,28,28,28,28,28,28,28,28,28,29,29,29,29,29,29,29,29,29,29,29,29,29,29,29,29,29,30,30,30,30,30,30,30,30,30,30,30,30,30,30,30,30,30,30,31,31,31,31,31,31,31,31,31,31,31,31,31,31,31,31,31,31,31,31,31,31,31,31,32,32,32,32,32,32,32,32,32,32,32,32,32,32,32,32,32,32,32,32,32,32,32,32,32,33,33,33,33,33,33,33,33,33,33,33,33,33,33,33,33,33,33,33,33,33,33,33,33,33,34,34,34,34,34,34,34,34,34,34,34,34,34,34,34,34,34,34,35,35,35,35,35,35,35,35,35,35,35,35,35,35,35,36,36,36,36,36,36,36,36,36,36,36,36,36,36,36,36,36,36,36,36,36,36,36,37,37,37,37,37,37,37,37,37,37,37,37,37,37,37,37,37,37,37,38,38,38,38,38,38,38,38,38,38,38,38,38,38,38,38,38,38,38,38,38,39,39,39,39,39,39,39,39,39,39,39,39,39,39,39,39,39,39,39,39,39,40,40,40,40,40,40,40,40,40,40,40,40,40,40,40,40,40,40,40,41,41,41,41,41,41,41,41,41,41,41,41,41,41,41,41,42,42,42,42,42,42,42,42,42,42,42,42,42,42,42,42,42,42,43,43,43,43,43,43,43,43,43,43,43,43,43,43,43,43,44,44,44,44,44,44,44,44,44,44,44,44,44,45,45,45,45,45,45,45,45,45,45,45,45,45,46,46,46,46,46,46,46,46,46,46,46,46,47,47,47,47,47,47,47,48,48,48,48,48,48,48,48,48,48,48,48,49,49,49,49,49,49,49,49,49,49,50,50,50,50,50,50,50,50,51,51,51,51,51,51,51,51,52,52,52,52,52,52,52,52,53,53,53,53,53,53,54,54,54,54,54,55,55,55,55,55,56,56,56,57,57,57,58,58,59,59,60];
unsucc = [3,4,5,6,7,8,9,10,11,13,14,15,16,17,18,20,21,22,24,26,27,28,29,30,31,32,33,34,35,37,38,39,40,41,42,43,44,45,46,49,51,52,56,4,5,10,12,14,16,19,23,25,26,28,31,32,33,36,37,38,47,48,6,7,8,9,11,12,13,15,17,18,20,21,22,23,24,25,27,29,30,34,35,40,41,42,43,47,49,50,53,56,57,58,6,7,8,9,11,12,13,14,15,16,17,18,19,20,21,22,23,24,25,27,29,30,33,34,35,36,40,41,42,43,47,48,49,50,53,56,57,58,10,12,13,14,16,19,21,23,25,26,28,31,32,33,36,37,38,47,48,50,8,9,10,11,12,13,14,16,18,19,20,21,22,23,25,26,27,28,29,30,31,32,33,34,35,36,37,38,39,40,41,43,45,47,48,49,50,53,54,55,58,9,10,12,13,14,15,16,17,19,21,23,24,25,26,27,28,29,30,31,32,33,35,36,37,38,40,42,44,46,47,48,50,53,10,11,12,13,14,15,16,17,18,19,20,21,22,23,24,25,26,28,31,32,33,34,36,37,38,39,42,43,44,47,48,49,50,56,58,11,12,13,14,15,16,17,18,19,20,21,22,23,24,25,27,28,29,30,31,32,33,34,35,36,38,39,40,41,42,43,45,47,48,49,50,53,54,56,57,58,12,13,14,15,16,17,19,21,23,24,25,26,27,28,29,30,31,32,33,35,36,37,38,40,42,44,46,47,48,50,53,13,14,15,16,17,18,20,21,22,24,25,26,27,28,29,30,31,32,33,34,35,36,37,38,39,40,41,42,43,44,45,46,47,48,49,50,51,52,53,54,55,56,57,59,14,15,16,17,18,19,20,22,23,24,25,26,27,28,29,30,31,32,33,34,35,36,37,38,39,40,41,42,43,44,45,46,47,48,49,51,52,53,56,57,58,60,61,15,16,17,18,19,20,21,22,23,24,25,26,27,28,29,30,31,32,33,34,35,36,37,38,40,41,42,43,44,45,46,47,48,49,50,51,52,53,54,55,56,57,58,60,61,16,18,19,20,21,22,23,24,25,26,27,28,29,30,31,32,33,34,35,36,37,38,39,40,41,42,43,45,47,48,49,50,53,54,55,56,57,58,59,61,17,18,20,21,22,23,24,25,26,27,28,29,30,31,32,34,35,37,38,39,40,41,42,43,45,47,49,50,53,54,55,56,57,58,59,61,18,19,20,21,22,23,24,25,26,27,28,29,30,31,32,33,34,35,36,37,38,39,40,41,42,43,45,47,48,49,50,53,54,55,56,57,58,59,61,19,21,23,24,25,26,27,28,29,30,31,32,33,35,36,37,38,40,42,44,46,47,48,49,50,53,56,57,20,21,22,23,24,25,26,27,28,29,30,31,32,33,34,35,36,37,38,39,40,41,42,43,44,45,46,47,48,49,50,51,52,53,54,55,56,57,58,59,61,21,23,24,25,26,27,28,29,30,31,32,33,35,36,37,38,40,41,42,44,45,46,47,48,49,50,53,56,57,22,23,24,25,26,27,28,29,30,31,32,33,34,35,36,37,38,39,40,41,42,43,44,45,46,47,48,49,51,52,53,56,57,58,60,61,23,24,25,26,27,28,29,30,31,32,33,34,35,36,37,38,39,40,41,42,43,44,45,46,47,48,49,50,51,52,53,54,56,57,58,60,61,24,25,26,27,28,29,30,31,32,33,34,35,36,37,38,39,40,41,42,43,44,45,46,47,48,49,50,51,52,53,54,55,56,57,59,60,25,26,27,28,29,30,31,32,33,34,35,36,37,38,39,40,41,42,43,44,45,46,47,48,49,50,51,52,53,54,55,58,59,60,26,27,28,29,30,31,32,33,34,35,37,38,39,40,41,42,43,44,45,46,47,49,50,51,52,53,54,55,56,57,58,59,61,27,28,29,30,31,32,33,34,35,36,37,38,39,40,41,42,43,44,45,46,47,48,49,50,51,52,53,54,56,57,58,60,61,28,29,30,31,32,33,34,35,36,37,38,39,40,41,42,43,44,46,47,48,49,50,51,52,53,56,57,58,60,61,29,30,32,33,34,35,36,40,41,42,43,45,47,48,49,50,53,54,55,56,57,58,61,31,32,33,34,36,37,38,39,42,43,44,47,48,49,50,56,58,31,32,33,34,36,37,38,39,40,42,43,44,47,48,49,50,56,58,32,33,34,35,36,38,39,40,41,42,43,45,47,48,49,50,53,54,55,56,57,58,59,61,33,34,35,36,37,38,39,40,41,42,43,44,46,47,48,49,50,51,52,53,56,57,58,60,61,34,35,37,38,39,40,41,42,43,44,45,46,47,49,50,51,52,53,54,55,56,57,58,59,61,35,36,37,38,39,40,41,42,44,45,46,47,48,49,50,53,56,57,36,37,38,39,40,42,43,44,47,48,49,50,53,56,58,37,38,39,40,41,42,43,44,45,46,47,49,50,51,52,53,54,55,56,57,58,59,61,38,39,40,41,42,43,45,47,48,49,50,53,54,55,56,57,58,59,61,40,41,42,43,44,45,46,47,48,49,50,51,52,53,54,55,56,57,58,60,61,40,41,42,43,44,45,46,47,48,49,50,51,52,53,54,55,56,57,58,60,61,41,42,43,44,45,46,47,48,49,50,51,53,54,55,56,57,58,59,61,42,43,44,46,47,48,49,50,51,52,53,56,57,58,60,61,43,44,45,46,47,48,49,50,51,52,53,54,55,56,57,58,60,61,44,45,46,47,48,49,50,51,52,53,54,55,56,57,59,60,45,47,48,49,50,53,54,55,56,57,58,59,61,46,47,48,49,50,51,52,53,56,57,58,60,61,47,48,49,50,53,54,55,56,57,58,59,61,48,49,51,52,56,58,60,49,50,51,52,53,54,55,56,57,58,59,61,50,51,52,53,54,55,56,57,59,60,51,52,53,56,57,58,60,61,53,54,55,56,57,58,59,61,53,54,55,56,57,58,59,61,54,55,56,58,59,60,56,57,58,60,61,56,57,58,60,61,58,59,60,58,59,60,59,60,60,61,61];

USEFUL_RES = [{},
	{2,4,7,8,9,10,11,13,14,15,16,17},
	{1,2,3,4,6,7,8,9,10,11,12,13,14,15,16,17,18},
	{2,4,7,8,9,11,13,15,16,17},
	{1,2,3,4,7,8,12,13,14,15},
	{1,2,3,4,7,8,9,10,11,12,13,14,15,16,17},
	{1,2,3,4,5,7,8,12,13,15},
	{1,2,3,4,5,7,8,9,10,11,12,13,15,16,17},
	{1,2,3,4,5,7,8,9,10,11,12,13,14,15,16,17},
	{1,2,3,4,5,7,8,12,13,14,15},
	{1,2,3,4,5,6,7,8,9,10,11,12,13,14,15,16,17,18},
	{2,4,7,8,13,15},
	{1,2,3,4,5,7,8,9,11,12,13,14,15,16,17},
	{1,2,3,4,5,6,7,8,9,10,11,12,13,14,15,16,17,18},
	{1,2,3,4,5,7,8,9,10,11,12,13,14,15,16,17},
	{1,3,5,12},
	{1,3,5,9,10,11,12,16,17},
	{2,4,7,8,13,14,15},
	{1,2,3,4,5,7,8,9,10,11,12,13,14,15,16,17},
	{1,3,5,7,8,9,10,11,12,13,16,17},
	{1,2,3,4,7,8,12,13,14,15},
	{1,2,3,4,5,7,8,9,10,11,12,13,15,16,17},
	{1,2,3,4,5,7,8,9,10,11,12,13,14,15,16,17},
	{2,4,7,8,9,11,13,14,15,16,17},
	{2,3,4,7,8,9,11,13,15,16,17},
	{2,4,7,8,9,10,11,13,14,15,16,17},
	{1,2,3,4,5,7,8,9,11,12,13,14,15,16,17},
	{2,4,7,8,13,14,15},
	{2,4,7,8,9,10,11,13,14,15,16,17},
	{6,8,9,10,11,16,17,18},
	{2,4,7,8,9,10,11,13,14,15,16,17},
	{1,3,5,7,8,9,10,11,12,13,16,17},
	{1,2,3,4,7,8,12,13,14,15},
	{2,4,7,8,9,11,13,14,15,16,17},
	{1,3,5,7,8,12,13},
	{1,2,3,4,5,7,8,12,13,15},
	{9,11,16,17},
	{1,2,3,4,7,8,9,10,11,12,13,14,15,16,17},
	{1,2,3,4,5,7,8,9,10,11,12,13,14,15,16,17},
	{1,2,3,4,5,7,8,9,10,11,12,13,14,15,16,17},
	{9,10,11,16,17},
	{2,4,7,8,13,15},
	{2,4,7,8,13,15},
	{1,2,3,4,5,7,8,12,13,14,15},
	{1,2,3,4,5,7,8,9,11,12,13,14,15,16,17},
	{1,3,5,12},
	{9,11,16,17},
	{2,4,6,7,8,9,10,11,13,14,15,16,17,18},
	{1,2,3,4,5,7,8,9,10,11,12,13,14,15,16,17},
	{1,3,5,9,10,11,12,16,17},
	{2,4,7,8,9,10,11,13,15,16,17},
	{1,3,5,6,8,9,10,11,12,16,17,18},
	{1,2,3,4,5,7,8,9,11,12,13,14,15,16,17},
	{2,4,7,8,9,10,11,13,14,15,16,17},
	{1,3,5,9,10,11,12,16,17},
	{2,4,6,7,8,9,10,11,13,14,15,16,17,18},
	{1,2,3,4,5,6,7,8,9,10,11,12,13,14,15,16,17,18},
	{2,4,7,8,13,14,15},
	{2,4,7,8,9,10,11,13,14,15,16,17},
	{1,2,3,4,5,6,7,8,9,10,11,12,13,15,16,17,18},
	{2,4,7,8,9,10,11,13,14,15,16,17},
	{}];

POTENTIAL_ACT = [{3,5,6,7,8,9,10,11,13,14,15,16,17,19,20,21,22,23,27,32,33,35,36,38,39,40,44,45,46,49,50,52,53,55,57,60},
	{2,3,4,5,6,7,8,9,10,11,12,13,14,15,18,19,21,22,23,24,25,26,27,28,29,31,33,34,36,38,39,40,42,43,44,45,48,49,51,53,54,56,57,58,59,60,61},
	{3,5,6,7,8,9,10,11,13,14,15,16,17,19,20,21,22,23,25,27,32,33,35,36,38,39,40,44,45,46,49,50,52,53,55,57,60},
	{2,3,4,5,6,7,8,9,10,11,12,13,14,15,18,19,21,22,23,24,25,26,27,28,29,31,33,34,36,38,39,40,42,43,44,45,48,49,51,53,54,56,57,58,59,60,61},
	{7,8,9,10,11,13,14,15,16,17,19,20,22,23,27,32,35,36,39,40,44,45,46,49,50,52,53,55,57,60},
	{3,11,14,30,48,52,56,57,60},
	{2,3,4,5,6,7,8,9,10,11,12,13,14,15,18,19,20,21,22,23,24,25,26,27,28,29,31,32,33,34,35,36,38,39,40,42,43,44,45,48,49,51,53,54,56,57,58,59,60,61},
	{2,3,4,5,6,7,8,9,10,11,12,13,14,15,18,19,20,21,22,23,24,25,26,27,28,29,30,31,32,33,34,35,36,38,39,40,42,43,44,45,48,49,51,52,53,54,56,57,58,59,60,61},
	{2,3,4,6,8,9,11,13,14,15,17,19,20,22,23,24,25,26,27,29,30,31,32,34,37,38,39,40,41,45,47,48,49,50,51,52,53,54,55,56,57,59,60,61},
	{2,3,6,8,9,11,14,15,17,19,20,22,23,26,29,30,31,32,38,39,40,41,48,49,50,51,52,54,55,56,57,59,60,61},
	{2,3,4,6,8,9,11,13,14,15,17,19,20,22,23,24,25,26,27,29,30,31,32,34,37,38,39,40,41,45,47,48,49,50,51,52,53,54,55,56,57,59,60,61},
	{3,5,6,7,8,9,10,11,13,14,15,16,17,19,20,21,22,23,27,32,33,35,36,38,39,40,44,45,46,49,50,52,53,55,57,60},
	{2,3,4,5,6,7,8,9,10,11,12,13,14,15,18,19,20,21,22,23,24,25,26,27,28,29,31,32,33,34,35,36,38,39,40,42,43,44,45,48,49,51,53,54,56,57,58,59,60,61},
	{2,3,5,6,9,10,11,13,14,15,18,19,21,23,24,26,27,28,29,31,33,34,38,39,40,44,45,48,49,53,54,56,57,58,59,61},
	{2,3,4,5,6,7,8,9,10,11,12,13,14,15,18,19,21,22,23,24,25,26,27,28,29,31,33,34,36,38,39,40,42,43,44,45,48,49,51,53,54,56,57,58,59,60,61},
	{2,3,4,6,8,9,11,13,14,15,17,19,20,22,23,24,25,26,27,29,30,31,32,34,37,38,39,40,41,45,47,48,49,50,51,52,53,54,55,56,57,59,60,61},
	{2,3,4,6,8,9,11,13,14,15,17,19,20,22,23,24,25,26,27,29,30,31,32,34,37,38,39,40,41,45,47,48,49,50,51,52,53,54,55,56,57,59,60,61},
	{3,11,14,30,48,52,56,57,60}];
